(declare-const x (Array Bool Int))
(declare-const x9 (Array Bool Int))
(declare-fun b (Int Int Int Int Int Int) Bool)
(declare-fun r () (Array Bool (Array Bool (Array Int Bool))))
(declare-fun ar () (Array Bool Bool))
(declare-fun a () (Array Bool (Array Int Bool)))
(assert (forall ((v (Array Bool Int))) (= r (store r (or (b 1 0 0 1 0 (select v (select ar false)))) a))))
(assert (= 0 (select (store x9 (= x9 x) 0) false)))
(check-sat)
